Minimize
  - 33 y_0 - 29 y_1 - 33 y_2 - 49 y_3 - 40 y_4 - 48 y_5 - 40 y_6 - 38 y_7
   - 46 y_8 - 44 y_9 - 43 y_10 - 39 y_11 - 57 y_12 - 39 y_13 - 28 y_14
   - 48 y_15 - 19 y_16 - 51 y_18 - 20 y_19 - 63 y_20 - 45 y_21 - 44 y_22
   - 13 y_23 - 59 y_24 - 57 y_25 - 56 y_26 - 5 y_27 - 22 y_28 - 42 y_29
   - 46 y_30 - 49 y_31 - 38 y_32 - 44 y_33 - 58 y_34 - 44 y_35 - 19 y_36
   - 19 y_37 - 31 y_38 - 37 y_39 - 55 y_40 - 50 y_41 - 43 y_42 - 45 y_43
   - 23 y_44 - 34 y_45 - 25 y_46 - 37 y_47 - 43 y_48 - 42 y_49
   + 1932 Constant
Subject To
 c_0: y_22 = 1
 c_1_0: y_0 + y_2 + y_13 + y_32 + y_46 + y_47 >= 1
 c_1_1: y_1 + y_14 + y_38 + y_44 + y_46 >= 1
 c_1_2: y_0 + y_2 + y_29 + y_32 + y_39 + y_47 >= 1
 c_1_3: y_3 + y_4 + y_6 + y_18 + y_25 + y_26 + y_40 >= 1
 c_1_4: y_3 + y_4 + y_6 + y_33 >= 1
 c_1_5: y_5 + y_8 + y_22 + y_29 + y_43 >= 1
 c_1_6: y_3 + y_4 + y_6 + y_7 + y_38 + y_42 + y_45 >= 1
 c_1_7: y_6 + y_7 + y_11 + y_21 + y_38 + y_42 + y_45 >= 1
 c_1_8: y_5 + y_8 + y_13 + y_15 + y_22 + y_30 + y_32 + y_41 >= 1
 c_1_9: y_9 + y_10 + y_48 + y_49 >= 1
 c_1_10: y_9 + y_10 + y_11 + y_31 + y_35 + y_48 + y_49 >= 1
 c_1_11: y_7 + y_10 + y_11 + y_21 + y_31 + y_35 + y_42 + y_45 + y_48 + y_49
   >= 1
 c_1_12: y_12 + y_20 + y_34 + y_41 >= 1
 c_1_13: y_0 + y_8 + y_13 + y_15 + y_22 + y_30 + y_32 >= 1
 c_1_14: y_1 + y_14 + y_38 + y_44 + y_45 >= 1
 c_1_15: y_8 + y_13 + y_15 + y_30 + y_33 + y_41 >= 1
 c_1_16: y_16 + y_19 + y_23 + y_36 >= 1
 c_1_17: y_17 + y_27 >= 1
 c_1_18: y_3 + y_18 + y_25 + y_26 >= 1
 c_1_19: y_16 + y_19 + y_23 + y_36 + y_46 >= 1
 c_1_20: y_12 + y_20 + y_24 + y_25 + y_26 + y_34 + y_40 >= 1
 c_1_21: y_7 + y_11 + y_21 + y_31 + y_35 + y_42 >= 1
 c_1_22: y_5 + y_8 + y_13 + y_22 + y_29 + y_32 + y_43 + y_47 >= 1
 c_1_23: y_16 + y_19 + y_23 + y_27 + y_36 >= 1
 c_1_24: y_20 + y_24 + y_25 + y_26 + y_34 + y_40 >= 1
 c_1_25: y_3 + y_18 + y_20 + y_24 + y_25 + y_26 + y_34 + y_40 >= 1
 c_1_26: y_3 + y_18 + y_20 + y_24 + y_25 + y_26 + y_34 + y_40 >= 1
 c_1_27: y_17 + y_23 + y_27 >= 1
 c_1_28: y_28 + y_37 >= 1
 c_1_29: y_2 + y_5 + y_22 + y_29 + y_32 + y_39 + y_43 + y_47 >= 1
 c_1_30: y_8 + y_13 + y_15 + y_30 + y_33 + y_41 >= 1
 c_1_31: y_10 + y_11 + y_21 + y_31 + y_35 + y_42 + y_48 >= 1
 c_1_32: y_0 + y_2 + y_8 + y_13 + y_22 + y_29 + y_32 + y_47 >= 1
 c_1_33: y_4 + y_15 + y_30 + y_33 + y_41 >= 1
 c_1_34: y_12 + y_20 + y_24 + y_25 + y_26 + y_34 + y_40 >= 1
 c_1_35: y_10 + y_11 + y_21 + y_31 + y_35 + y_42 + y_48 + y_49 >= 1
 c_1_36: y_16 + y_19 + y_23 + y_36 + y_46 >= 1
 c_1_37: y_28 + y_37 + y_44 >= 1
 c_1_38: y_1 + y_6 + y_7 + y_14 + y_38 + y_44 + y_45 >= 1
 c_1_39: y_2 + y_29 + y_39 + y_43 + y_47 >= 1
 c_1_40: y_3 + y_20 + y_24 + y_25 + y_26 + y_34 + y_40 >= 1
 c_1_41: y_8 + y_12 + y_15 + y_30 + y_33 + y_41 >= 1
 c_1_42: y_6 + y_7 + y_11 + y_21 + y_31 + y_35 + y_42 + y_45 >= 1
 c_1_43: y_5 + y_22 + y_29 + y_39 + y_43 + y_47 >= 1
 c_1_44: y_1 + y_14 + y_37 + y_38 + y_44 >= 1
 c_1_45: y_6 + y_7 + y_11 + y_14 + y_38 + y_42 + y_45 >= 1
 c_1_46: y_0 + y_1 + y_19 + y_36 + y_46 >= 1
 c_1_47: y_0 + y_2 + y_22 + y_29 + y_32 + y_39 + y_43 + y_47 >= 1
 c_1_48: y_9 + y_10 + y_11 + y_31 + y_35 + y_48 + y_49 >= 1
 c_1_49: y_9 + y_10 + y_11 + y_35 + y_48 + y_49 >= 1
Bounds
 Constant = 1
Binaries
 y_0 y_1 y_2 y_3 y_4 y_5 y_6 y_7 y_8 y_9 y_10 y_11 y_12 y_13 y_14 y_15 y_16
 y_17 y_18 y_19 y_20 y_21 y_22 y_23 y_24 y_25 y_26 y_27 y_28 y_29 y_30 y_31
 y_32 y_33 y_34 y_35 y_36 y_37 y_38 y_39 y_40 y_41 y_42 y_43 y_44 y_45 y_46
 y_47 y_48 y_49
End
